array[1 .. 21] of int: Formula = 
  [ 1, 2, 3, 1, 2, - 3, 1, - 2, 3, 1, - 2, - 3, - 1, 2, 3, - 1, 2, - 3, - 1, 
    - 2, 3 ];
array[1 .. 3] of var bool: assignment;
output 
  [ "simple sat: ", show(assignment[1]), " ", show(assignment[2]), " ", 
    show(assignment[3]), "\n" ];
